sat
(:max-memory        18.75
 :memory            17.63
 :num-allocs        65005124
 :rlimit-count      355113
 :sls-constraints   2468
 :sls-ddfw-flips    163597.00
 :sls-ddfw-reinits  6
 :sls-ddfw-restarts 106
 :sls-ddfw-shifts   142765.00
 :sls.euf-conflict  2468
 :time              0.28
 :total-time        0.28)
